data/MCDM/NO_CORR/GEN_FROM_60/13_ITEMS_1000_GEN/K5013W19.KNP.mps
NAME          BLANK   
ROWS
 N  OBJROW
 L  R0000000
COLUMNS
    C0000000  OBJROW     -959.         R0000000  811.        
    C0000001  OBJROW     -978.         R0000000  828.        
    C0000002  OBJROW     -521.         R0000000  23.         
    C0000003  OBJROW     -982.         R0000000  420.        
    C0000004  OBJROW     -632.         R0000000  524.        
    C0000005  OBJROW     -290.         R0000000  358.        
    C0000006  OBJROW     -47.          R0000000  729.        
    C0000007  OBJROW     -973.         R0000000  355.        
    C0000008  OBJROW     -310.         R0000000  679.        
    C0000009  OBJROW     -732.         R0000000  8.          
    C0000010  OBJROW     -496.         R0000000  954.        
    C0000011  OBJROW     -328.         R0000000  26.         
    C0000012  OBJROW     -409.         R0000000  503.        
RHS
    RHS       R0000000  14458.      
BOUNDS
 BV BOUND     C0000000  1.          
 BV BOUND     C0000001  1.          
 BV BOUND     C0000002  1.          
 BV BOUND     C0000003  1.          
 BV BOUND     C0000004  1.          
 BV BOUND     C0000005  1.          
 BV BOUND     C0000006  1.          
 BV BOUND     C0000007  1.          
 BV BOUND     C0000008  1.          
 BV BOUND     C0000009  1.          
 BV BOUND     C0000010  1.          
 BV BOUND     C0000011  1.          
 BV BOUND     C0000012  1.          
ENDATA
