data/MCDM/NO_CORR/GEN_FROM_60/13_ITEMS_1000_GEN/K5013W19.KNP.txt
N 13
M 14
LC 13
LC 14
LC 15
LC 16
LC 17
LC 18
LC 19
LC 20
LC 21
LC 22
LC 23
LC 24
LC 25
LR 1
LR 2
LR 3
LR 4
LR 5
LR 6
LR 7
LR 8
LR 9
LR 10
LR 11
LR 12
LR 13
LR 14
LO -959
LO -978
LO -521
LO -982
LO -632
LO -290
LO -47
LO -973
LO -310
LO -732
LO -496
LO -328
LO -409
OS 1
IC 757
IC 314
IC 480
IC 85
IC 991
IC 58
IC 528
IC 699
IC 976
IC 696
IC 179
IC 84
IC 991
IB 3419
